c File: instances/26_0.40_3.col
c
c Description: Random graph of size 26 vertices and P(0.39999999999999997) of edges between any two vertices.
p col 26 325
e 1 3
e 1 4
e 1 12
e 1 13
e 1 16
e 1 18
e 1 19
e 1 20
e 1 23
e 1 26
e 2 7
e 2 9
e 2 12
e 2 13
e 2 14
e 2 15
e 2 17
e 2 18
e 2 19
e 2 20
e 2 21
e 2 22
e 2 23
e 2 25
e 2 26
e 3 4
e 3 6
e 3 8
e 3 9
e 3 11
e 3 12
e 3 15
e 3 17
e 3 23
e 3 26
e 4 5
e 4 10
e 4 11
e 4 15
e 4 18
e 4 22
e 4 24
e 5 6
e 5 7
e 5 9
e 5 10
e 5 11
e 5 12
e 5 19
e 5 21
e 5 22
e 6 7
e 6 8
e 6 12
e 6 13
e 6 14
e 6 15
e 6 16
e 6 17
e 6 19
e 6 20
e 6 23
e 7 10
e 7 12
e 7 13
e 7 15
e 7 16
e 7 17
e 7 23
e 7 24
e 7 25
e 8 10
e 8 12
e 8 16
e 8 17
e 8 18
e 8 23
e 8 24
e 9 10
e 9 11
e 9 14
e 9 15
e 9 16
e 9 19
e 9 23
e 10 13
e 10 15
e 10 18
e 10 20
e 10 24
e 10 25
e 11 13
e 11 16
e 11 19
e 11 20
e 12 16
e 12 17
e 12 18
e 12 19
e 12 20
e 13 14
e 13 17
e 13 21
e 13 26
e 14 15
e 14 17
e 14 18
e 14 20
e 14 24
e 14 26
e 15 17
e 15 18
e 15 19
e 15 22
e 15 23
e 15 25
e 15 26
e 16 19
e 16 22
e 16 24
e 16 25
e 17 18
e 17 20
e 17 21
e 17 22
e 17 23
e 18 19
e 18 22
e 18 24
e 19 25
e 19 26
e 20 23
e 20 25
e 20 26
e 21 24
e 21 26
e 22 23
e 22 24